CPXPARAM_TimeLimit                               7200
CPXPARAM_Read_DataCheck                          1
Parallel mode: deterministic, using up to 8 threads for concurrent optimization.
Tried aggregator 1 time.
LP Presolve eliminated 109 rows and 0 columns.
Reduced LP has 8426 rows, 3376 columns, and 26077 nonzeros.
Presolve time = 0.00 sec. (4.33 ticks)

Iteration log . . .
Iteration:     1   Dual objective     =          1162.000000
Perturbation started.
Iteration:   214   Dual objective     =          1162.000000
Initializing dual steep norms . . .
Iteration:   215   Dual objective     =          1162.000094
Iteration:   418   Dual objective     =          1162.015858
Iteration:   642   Dual objective     =          1162.016093
Iteration:   803   Dual objective     =          1162.016354
Iteration:   953   Dual objective     =          1162.016440
Iteration:  1105   Dual objective     =          1162.016497
Iteration:  1256   Dual objective     =          1162.016576
Iteration:  1412   Dual objective     =          1162.016622
Iteration:  1552   Dual objective     =          1162.016681
Iteration:  1701   Dual objective     =          1162.016710
Iteration:  1856   Dual objective     =          1162.016724
Iteration:  2024   Dual objective     =          1162.016730
Removing perturbation.

Dual simplex solved model.

